projected/problems_b25_r0_d7_m100_s666/_DIMACS/b25_d7_r0_s666_097.cnf
p cnf 275 485 25
c p show 1 2 3 4 5 6 7 8 9 10 11 12 13 14 15 16 17 18 19 20 21 22 23 24 25
-26 -25 0
-26 19 0
-27 -19 0
-27 25 0
-28 27 26 0
-29 -22 0
-29 13 0
-30 29 0
-30 28 0
-31 -1 14 0
-32 -10 -6 0
-33 32 0
-33 31 0
-34 10 0
-34 6 0
-35 1 0
-35 -14 0
-36 35 0
-36 34 0
-37 36 33 0
-38 37 0
-38 30 0
-39 -16 0
-39 -18 0
-40 22 0
-41 -22 0
-42 41 40 0
-43 42 39 0
-44 9 -24 0
-45 24 -9 0
-46 45 0
-46 44 0
-47 -16 0
-47 -17 0
-48 47 46 0
-49 48 0
-49 43 0
-50 -9 0
-50 24 0
-51 -24 0
-51 9 0
-52 51 50 0
-53 16 17 0
-54 53 0
-54 52 0
-55 16 18 0
-56 -22 0
-57 22 0
-58 57 0
-58 56 0
-59 58 0
-59 55 0
-60 59 0
-60 54 0
-61 60 49 0
-62 61 0
-62 38 0
-63 14 0
-63 -7 0
-64 -17 0
-64 4 0
-65 64 0
-65 63 0
-66 -7 19 0
-67 -15 -14 0
-68 67 66 0
-69 68 65 0
-70 7 16 0
-71 6 24 0
-72 71 0
-72 70 0
-73 -12 0
-73 24 0
-74 19 -20 0
-75 74 0
-75 73 0
-76 75 72 0
-77 12 -24 0
-78 -19 0
-78 20 0
-79 78 77 0
-80 -7 0
-80 -16 0
-81 -6 0
-81 -24 0
-82 81 80 0
-83 82 79 0
-84 83 0
-84 76 0
-85 84 0
-85 69 0
-86 85 62 0
-87 -11 -10 0
-88 6 -8 0
-89 88 0
-89 87 0
-90 3 0
-90 24 0
-91 14 -9 0
-92 91 90 0
-93 92 0
-93 89 0
-94 -20 17 0
-95 -14 0
-95 12 0
-96 95 94 0
-97 6 -14 0
-98 18 0
-98 -11 0
-99 98 97 0
-100 99 96 0
-101 100 0
-101 93 0
-102 -24 -7 0
-103 8 5 0
-104 103 102 0
-105 -11 -14 0
-106 20 6 0
-107 -6 -20 0
-108 107 0
-108 106 0
-109 108 0
-109 105 0
-110 109 104 0
-111 -12 8 0
-112 -4 0
-112 -3 0
-113 112 111 0
-114 15 0
-114 20 0
-115 -1 -22 0
-116 115 114 0
-117 116 113 0
-118 117 110 0
-119 12 0
-119 -8 0
-120 4 3 0
-121 120 0
-121 119 0
-122 -15 -20 0
-123 1 0
-123 22 0
-124 123 0
-124 122 0
-125 124 0
-125 121 0
-126 24 0
-126 7 0
-127 -8 0
-127 -5 0
-128 127 0
-128 126 0
-129 11 0
-129 14 0
-130 -20 0
-130 -6 0
-131 6 0
-131 20 0
-132 131 130 0
-133 132 129 0
-134 133 0
-134 128 0
-135 134 125 0
-136 135 0
-136 118 0
-137 136 0
-137 101 0
-138 137 0
-138 86 0
-139 11 0
-139 10 0
-140 -6 0
-140 8 0
-141 140 139 0
-142 -3 -24 0
-143 -14 0
-143 9 0
-144 143 0
-144 142 0
-145 144 141 0
-146 20 0
-146 -17 0
-147 14 -12 0
-148 147 0
-148 146 0
-149 -6 0
-149 14 0
-150 -18 11 0
-151 150 0
-151 149 0
-152 151 0
-152 148 0
-153 152 145 0
-154 125 0
-154 134 0
-155 110 0
-155 117 0
-156 155 154 0
-157 156 153 0
-158 25 -19 0
-159 19 -25 0
-160 159 0
-160 158 0
-161 22 -13 0
-162 161 160 0
-163 34 35 0
-164 31 32 0
-165 164 0
-165 163 0
-166 165 162 0
-167 54 59 0
-168 43 48 0
-169 168 0
-169 167 0
-170 169 166 0
-171 -14 7 0
-172 17 -4 0
-173 172 171 0
-174 7 0
-174 -19 0
-175 15 0
-175 14 0
-176 175 0
-176 174 0
-177 176 0
-177 173 0
-178 79 0
-178 82 0
-179 72 0
-179 75 0
-180 179 178 0
-181 180 177 0
-182 181 0
-182 170 0
-183 182 0
-183 157 0
-184 183 138 0
-185 6 0
-185 9 0
-186 -20 -16 0
-187 186 0
-187 185 0
-188 13 0
-188 12 0
-189 8 6 0
-190 189 0
-190 188 0
-191 190 0
-191 187 0
-192 1 21 0
-193 5 0
-193 -22 0
-194 193 0
-194 192 0
-195 22 0
-195 -25 0
-196 -1 18 0
-197 196 195 0
-198 197 0
-198 194 0
-199 198 191 0
-200 19 8 0
-201 -15 0
-201 -14 0
-202 201 200 0
-203 15 14 0
-204 -19 0
-204 -8 0
-205 204 203 0
-206 205 0
-206 202 0
-207 -21 -12 0
-208 21 -1 0
-209 208 207 0
-210 209 0
-210 206 0
-211 -23 -12 0
-212 -15 0
-212 15 0
-213 212 0
-213 211 0
-214 -18 0
-214 18 0
-215 -11 0
-215 6 0
-216 215 0
-216 214 0
-217 216 213 0
-218 217 210 0
-219 218 199 0
-220 3 0
-220 22 0
-221 7 0
-221 6 0
-222 221 0
-222 220 0
-223 -13 9 0
-224 -7 25 0
-225 224 0
-225 223 0
-226 225 222 0
-227 -12 0
-227 -5 0
-228 -10 -3 0
-229 228 0
-229 227 0
-230 -18 23 0
-231 -21 0
-231 -24 0
-232 231 230 0
-233 21 24 0
-234 18 0
-234 -23 0
-235 234 233 0
-236 235 0
-236 232 0
-237 236 229 0
-238 237 0
-238 226 0
-239 15 13 0
-240 6 -3 0
-241 240 0
-241 239 0
-242 6 0
-242 2 0
-243 -1 -20 0
-244 20 1 0
-245 244 0
-245 243 0
-246 245 242 0
-247 1 0
-247 20 0
-248 -20 0
-248 -1 0
-249 248 247 0
-250 -6 -2 0
-251 250 249 0
-252 251 0
-252 246 0
-253 252 0
-253 241 0
-254 249 0
-254 250 0
-255 242 0
-255 245 0
-256 255 254 0
-257 -15 0
-257 -13 0
-258 -6 0
-258 3 0
-259 258 257 0
-260 259 0
-260 256 0
-261 260 253 0
-262 15 -4 0
-263 243 0
-263 262 0
-264 -15 0
-264 4 0
-265 264 0
-265 247 0
-266 265 263 0
-267 25 -2 0
-268 14 0
-268 13 0
-269 -13 0
-269 -14 0
-270 269 268 0
-271 270 0
-271 267 0
-272 271 266 0
-273 272 261 0
-274 273 0
-274 238 0
-275 274 219 0
275 184 0
-139 -87 0
-140 -88 0
-141 -89 0
-89 -141 0
-90 -142 0
-143 -91 0
-91 -143 0
-92 -144 0
-93 -145 0
-146 -94 0
-94 -146 0
-95 -147 0
-96 -148 0
-148 -96 0
-149 -97 0
-97 -149 0
-98 -150 0
-99 -151 0
-151 -99 0
-152 -100 0
-100 -152 0
-101 -153 0
-119 -111 0
-120 -112 0
-121 -113 0
-113 -121 0
-114 -122 0
-123 -115 0
-115 -123 0
-116 -124 0
-117 -125 0
-125 -117 0
-102 -126 0
-126 -102 0
-103 -127 0
-127 -103 0
-128 -104 0
-129 -105 0
-108 -132 0
-132 -108 0
-133 -109 0
-134 -110 0
-110 -134 0
-136 -156 0
-137 -157 0
-160 -28 0
-29 -161 0
-161 -29 0
-162 -30 0
-30 -162 0
-32 -34 0
-35 -31 0
-165 -37 0
-37 -165 0
-38 -166 0
-166 -38 0
-46 -52 0
-52 -46 0
-53 -47 0
-54 -48 0
-48 -54 0
-55 -39 0
-39 -55 0
-58 -42 0
-42 -58 0
-43 -59 0
-59 -43 0
-169 -61 0
-170 -62 0
-63 -171 0
-171 -63 0
-172 -64 0
-173 -65 0
-66 -174 0
-174 -66 0
-67 -175 0
-175 -67 0
-176 -68 0
-177 -69 0
-77 -73 0
-73 -77 0
-74 -78 0
-75 -79 0
-79 -75 0
-80 -70 0
-81 -71 0
-82 -72 0
-72 -82 0
-84 -180 0
-180 -84 0
-181 -85 0
-182 -86 0
-203 -201 0
-204 -200 0
-200 -204 0
-233 -231 0
-234 -230 0
-230 -234 0
-245 -249 0
-249 -245 0
-250 -242 0
-242 -250 0
-252 -256 0
-257 -239 0
-258 -240 0
-259 -241 0
-247 -243 0
-243 -247 0
-264 -262 0
