projected/problems_b25_r0_d7_m100_s666/b25_d7_r0_s666_097.smt2
(set-logic QF_UF)
(declare-fun A0 () Bool)
(declare-fun A1 () Bool)
(declare-fun A2 () Bool)
(declare-fun A3 () Bool)
(declare-fun A4 () Bool)
(declare-fun A5 () Bool)
(declare-fun A6 () Bool)
(declare-fun A7 () Bool)
(declare-fun A8 () Bool)
(declare-fun A9 () Bool)
(declare-fun A10 () Bool)
(declare-fun A11 () Bool)
(declare-fun A12 () Bool)
(declare-fun A13 () Bool)
(declare-fun A14 () Bool)
(declare-fun A15 () Bool)
(declare-fun A16 () Bool)
(declare-fun A17 () Bool)
(declare-fun A18 () Bool)
(declare-fun A19 () Bool)
(declare-fun A20 () Bool)
(declare-fun A21 () Bool)
(declare-fun A22 () Bool)
(declare-fun A23 () Bool)
(declare-fun A24 () Bool)
(assert (let ((.def_0 (and A10 A9))) (let ((.def_1 (not A5))) (let ((.def_2 (and .def_1 A7))) (let ((.def_3 (or .def_2 .def_0))) (let ((.def_4 (not .def_3))) (let ((.def_5 (and A2 A23))) (let ((.def_6 (not A13))) (let ((.def_7 (and .def_6 A8))) (let ((.def_8 (not .def_7))) (let ((.def_9 (or .def_8 .def_5))) (let ((.def_10 (and .def_9 .def_4))) (let ((.def_11 (not A16))) (let ((.def_12 (and A19 .def_11))) (let ((.def_13 (not .def_12))) (let ((.def_14 (and .def_6 A11))) (let ((.def_15 (or .def_14 .def_13))) (let ((.def_16 (not .def_15))) (let ((.def_17 (and .def_1 A13))) (let ((.def_18 (not .def_17))) (let ((.def_19 (not A10))) (let ((.def_20 (and A17 .def_19))) (let ((.def_21 (or .def_20 .def_18))) (let ((.def_22 (not .def_21))) (let ((.def_23 (and .def_22 .def_16))) (let ((.def_24 (not .def_23))) (let ((.def_25 (and .def_24 .def_10))) (let ((.def_26 (not A7))) (let ((.def_27 (and A11 .def_26))) (let ((.def_28 (or A3 A2))) (let ((.def_29 (and .def_28 .def_27))) (let ((.def_30 (not .def_29))) (let ((.def_31 (and A14 A19))) (let ((.def_32 (and A0 A21))) (let ((.def_33 (not .def_32))) (let ((.def_34 (or .def_33 .def_31))) (let ((.def_35 (or .def_34 .def_30))) (let ((.def_36 (not .def_35))) (let ((.def_37 (not A6))) (let ((.def_38 (not A23))) (let ((.def_39 (or .def_38 .def_37))) (let ((.def_40 (not .def_39))) (let ((.def_41 (or A7 A4))) (let ((.def_42 (not .def_41))) (let ((.def_43 (and .def_42 .def_40))) (let ((.def_44 (and A10 A13))) (let ((.def_45 (not A19))) (let ((.def_46 (= A5 .def_45))) (let ((.def_47 (not .def_46))) (let ((.def_48 (or .def_47 .def_44))) (let ((.def_49 (and .def_48 .def_43))) (let ((.def_50 (not .def_49))) (let ((.def_51 (= .def_50 .def_36))) (let ((.def_52 (and .def_51 .def_25))) (let ((.def_53 (not A24))) (let ((.def_54 (not A18))) (let ((.def_55 (= .def_54 .def_53))) (let ((.def_56 (not A21))) (let ((.def_57 (and .def_56 A12))) (let ((.def_58 (not .def_57))) (let ((.def_59 (or .def_58 .def_55))) (let ((.def_60 (not .def_59))) (let ((.def_61 (not A9))) (let ((.def_62 (or .def_61 .def_1))) (let ((.def_63 (and A0 .def_6))) (let ((.def_64 (= .def_63 .def_62))) (let ((.def_65 (not .def_64))) (let ((.def_66 (and .def_65 .def_60))) (let ((.def_67 (not .def_66))) (let ((.def_68 (not A8))) (let ((.def_69 (= .def_38 .def_68))) (let ((.def_70 (not .def_69))) (let ((.def_71 (or A15 A16))) (let ((.def_72 (and .def_71 .def_70))) (let ((.def_73 (not .def_72))) (let ((.def_74 (or A15 A17))) (let ((.def_75 (not .def_74))) (let ((.def_76 (= .def_56 A21))) (let ((.def_77 (not .def_76))) (let ((.def_78 (or .def_77 .def_75))) (let ((.def_79 (not .def_78))) (let ((.def_80 (= .def_79 .def_73))) (let ((.def_81 (or .def_80 .def_67))) (let ((.def_82 (and A13 .def_37))) (let ((.def_83 (not .def_82))) (let ((.def_84 (not A3))) (let ((.def_85 (or A16 .def_84))) (let ((.def_86 (or .def_85 .def_83))) (let ((.def_87 (or .def_37 A18))) (let ((.def_88 (not .def_87))) (let ((.def_89 (not A14))) (let ((.def_90 (or .def_89 .def_6))) (let ((.def_91 (not .def_90))) (let ((.def_92 (and .def_91 .def_88))) (let ((.def_93 (and .def_92 .def_86))) (let ((.def_94 (or A11 .def_38))) (let ((.def_95 (not .def_94))) (let ((.def_96 (or A18 .def_45))) (let ((.def_97 (and .def_96 .def_95))) (let ((.def_98 (not .def_97))) (let ((.def_99 (not A15))) (let ((.def_100 (and .def_37 .def_99))) (let ((.def_101 (and .def_1 .def_38))) (let ((.def_102 (or .def_101 .def_100))) (let ((.def_103 (not .def_102))) (let ((.def_104 (= .def_103 .def_98))) (let ((.def_105 (not .def_104))) (let ((.def_106 (or .def_105 .def_93))) (let ((.def_107 (and .def_106 .def_81))) (let ((.def_108 (= .def_107 .def_52))) (let ((.def_109 (not .def_108))) (let ((.def_110 (or .def_1 .def_68))) (let ((.def_111 (or .def_45 .def_99))) (let ((.def_112 (not .def_111))) (let ((.def_113 (or .def_112 .def_110))) (let ((.def_114 (not .def_113))) (let ((.def_115 (not A11))) (let ((.def_116 (not A12))) (let ((.def_117 (or .def_116 .def_115))) (let ((.def_118 (or A7 A5))) (let ((.def_119 (not .def_118))) (let ((.def_120 (or .def_119 .def_117))) (let ((.def_121 (not .def_120))) (let ((.def_122 (and .def_121 .def_114))) (let ((.def_123 (not A20))) (let ((.def_124 (not A0))) (let ((.def_125 (and .def_124 .def_123))) (let ((.def_126 (not A4))) (let ((.def_127 (or .def_126 A21))) (let ((.def_128 (or .def_127 .def_125))) (let ((.def_129 (not .def_128))) (let ((.def_130 (or .def_56 A24))) (let ((.def_131 (not A17))) (let ((.def_132 (and A0 .def_131))) (let ((.def_133 (and .def_132 .def_130))) (let ((.def_134 (not .def_133))) (let ((.def_135 (and .def_134 .def_129))) (let ((.def_136 (or .def_135 .def_122))) (let ((.def_137 (or A14 A13))) (let ((.def_138 (and .def_54 .def_26))) (let ((.def_139 (not .def_138))) (let ((.def_140 (= .def_139 .def_137))) (let ((.def_141 (and A20 A11))) (let ((.def_142 (or A20 .def_124))) (let ((.def_143 (not .def_142))) (let ((.def_144 (and .def_143 .def_141))) (let ((.def_145 (not .def_144))) (let ((.def_146 (and .def_145 .def_140))) (let ((.def_147 (not A22))) (let ((.def_148 (or .def_147 .def_115))) (let ((.def_149 (not .def_148))) (let ((.def_150 (or A14 .def_89))) (let ((.def_151 (or .def_150 .def_149))) (let ((.def_152 (not .def_151))) (let ((.def_153 (and .def_131 A17))) (let ((.def_154 (not .def_153))) (let ((.def_155 (or A10 .def_1))) (let ((.def_156 (or .def_155 .def_154))) (let ((.def_157 (not .def_156))) (let ((.def_158 (or .def_157 .def_152))) (let ((.def_159 (or .def_158 .def_146))) (let ((.def_160 (or .def_159 .def_136))) (let ((.def_161 (not .def_160))) (let ((.def_162 (not A2))) (let ((.def_163 (or .def_162 .def_56))) (let ((.def_164 (or .def_37 .def_1))) (let ((.def_165 (or .def_164 .def_163))) (let ((.def_166 (not .def_165))) (let ((.def_167 (or .def_116 A8))) (let ((.def_168 (and A6 .def_53))) (let ((.def_169 (not .def_168))) (let ((.def_170 (and .def_169 .def_167))) (let ((.def_171 (or .def_170 .def_166))) (let ((.def_172 (not .def_171))) (let ((.def_173 (or A11 A4))) (let ((.def_174 (and A9 A2))) (let ((.def_175 (or .def_174 .def_173))) (let ((.def_176 (or A20 A23))) (let ((.def_177 (and A17 .def_147))) (let ((.def_178 (not .def_177))) (let ((.def_179 (= .def_178 .def_176))) (let ((.def_180 (not .def_179))) (let ((.def_181 (and .def_180 .def_175))) (let ((.def_182 (or .def_181 .def_172))) (let ((.def_183 (not .def_182))) (let ((.def_184 (= .def_45 A0))) (let ((.def_185 (not .def_184))) (let ((.def_186 (not A1))) (let ((.def_187 (or .def_1 .def_186))) (let ((.def_188 (not .def_187))) (let ((.def_189 (= .def_188 .def_185))) (let ((.def_190 (and .def_89 .def_116))) (let ((.def_191 (and .def_1 A2))) (let ((.def_192 (or .def_191 .def_190))) (let ((.def_193 (= .def_192 .def_189))) (let ((.def_194 (not .def_193))) (let ((.def_195 (and A0 A19))) (let ((.def_196 (not .def_195))) (let ((.def_197 (and .def_89 A3))) (let ((.def_198 (= .def_197 .def_196))) (let ((.def_199 (or A24 .def_186))) (let ((.def_200 (not .def_199))) (let ((.def_201 (= .def_116 A13))) (let ((.def_202 (or .def_201 .def_200))) (let ((.def_203 (and .def_202 .def_198))) (let ((.def_204 (not .def_203))) (let ((.def_205 (or .def_204 .def_194))) (let ((.def_206 (and .def_205 .def_183))) (let ((.def_207 (not .def_206))) (let ((.def_208 (and .def_207 .def_161))) (let ((.def_209 (not .def_208))) (let ((.def_210 (or .def_209 .def_109))) .def_210))))))))))))))))))))))))))))))))))))))))))))))))))))))))))))))))))))))))))))))))))))))))))))))))))))))))))))))))))))))))))))))))))))))))))))))))))))))))))))))))))))))))))))))))))))))))))))))))))))))))))))))))))))
(check-sat)
